NAME /Users/henri/Research/solvers/instances/idol-instances/robust/collection/cbp_Subramanyam_et_al_2020/CapBud_N20_12/models/uncertain_technology_matrix/
ROWS
 N  OBJ
 L  capacity
 L  c_2925
 L  c_2926
 L  c_2927
 L  c_2928
 L  c_2929
 L  c_2930
 L  c_2931
 L  c_2932
 L  c_2933
 L  c_2934
 L  c_2935
 L  c_2936
 L  c_2937
 L  c_2938
 L  c_2939
 L  c_2940
 L  c_2941
 L  c_2942
 L  c_2943
 L  c_2944
COLUMNS
    MARKER    'MARKER'                 'INTORG'
    x_0        OBJ        6.66497
    x_0        c_2925     1
    x_0        capacity   1.33299
    x_1        OBJ        1.91069
    x_1        c_2926     1
    x_1        capacity   0.382139
    x_2        OBJ        6.79141
    x_2        c_2927     1
    x_2        capacity   1.35828
    x_3        OBJ        2.66037
    x_3        c_2928     1
    x_3        capacity   0.532074
    x_4        OBJ        7.64259
    x_4        c_2929     1
    x_4        capacity   1.52852
    x_5        OBJ        0.301823
    x_5        c_2930     1
    x_5        capacity   0.0603646
    x_6        OBJ        6.10462
    x_6        c_2931     1
    x_6        capacity   1.22092
    x_7        OBJ        9.71438
    x_7        c_2932     1
    x_7        capacity   1.94288
    x_8        OBJ        1.7585
    x_8        c_2933     1
    x_8        capacity   0.3517
    x_9        OBJ        8.9076
    x_9        c_2934     1
    x_9        capacity   1.78152
    x_10       OBJ        6.07049
    x_10       c_2935     1
    x_10       capacity   1.2141
    x_11       OBJ        5.94082
    x_11       c_2936     1
    x_11       capacity   1.18816
    x_12       OBJ        6.49187
    x_12       c_2937     1
    x_12       capacity   1.29837
    x_13       OBJ        9.92417
    x_13       c_2938     1
    x_13       capacity   1.98483
    x_14       OBJ        0.882769
    x_14       c_2939     1
    x_14       capacity   0.176554
    x_15       OBJ        1.63568
    x_15       c_2940     1
    x_15       capacity   0.327135
    x_16       OBJ        6.12695
    x_16       c_2941     1
    x_16       capacity   1.22539
    x_17       OBJ        8.10331
    x_17       c_2942     1
    x_17       capacity   1.62066
    x_18       OBJ        0.416704
    x_18       c_2943     1
    x_18       capacity   0.0833408
    x_19       OBJ        8.88119
    x_19       c_2944     1
    x_19       capacity   1.77624
    y_0        OBJ        5.33198
    y_0        c_2925     1
    y_0        capacity   1.33299
    y_1        OBJ        1.52856
    y_1        c_2926     1
    y_1        capacity   0.382139
    y_2        OBJ        5.43313
    y_2        c_2927     1
    y_2        capacity   1.35828
    y_3        OBJ        2.1283
    y_3        c_2928     1
    y_3        capacity   0.532074
    y_4        OBJ        6.11407
    y_4        c_2929     1
    y_4        capacity   1.52852
    y_5        OBJ        0.241459
    y_5        c_2930     1
    y_5        capacity   0.0603646
    y_6        OBJ        4.88369
    y_6        c_2931     1
    y_6        capacity   1.22092
    y_7        OBJ        7.77151
    y_7        c_2932     1
    y_7        capacity   1.94288
    y_8        OBJ        1.4068
    y_8        c_2933     1
    y_8        capacity   0.3517
    y_9        OBJ        7.12608
    y_9        c_2934     1
    y_9        capacity   1.78152
    y_10       OBJ        4.85639
    y_10       c_2935     1
    y_10       capacity   1.2141
    y_11       OBJ        4.75266
    y_11       c_2936     1
    y_11       capacity   1.18816
    y_12       OBJ        5.19349
    y_12       c_2937     1
    y_12       capacity   1.29837
    y_13       OBJ        7.93934
    y_13       c_2938     1
    y_13       capacity   1.98483
    y_14       OBJ        0.706215
    y_14       c_2939     1
    y_14       capacity   0.176554
    y_15       OBJ        1.30854
    y_15       c_2940     1
    y_15       capacity   0.327135
    y_16       OBJ        4.90156
    y_16       c_2941     1
    y_16       capacity   1.22539
    y_17       OBJ        6.48265
    y_17       c_2942     1
    y_17       capacity   1.62066
    y_18       OBJ        0.333363
    y_18       c_2943     1
    y_18       capacity   0.0833408
    y_19       OBJ        7.10495
    y_19       c_2944     1
    y_19       capacity   1.77624
    MARKER    'MARKER'                 'INTEND'
RHS
    RHS       capacity   53.4655
    RHS       c_2925     1
    RHS       c_2926     1
    RHS       c_2927     1
    RHS       c_2928     1
    RHS       c_2929     1
    RHS       c_2930     1
    RHS       c_2931     1
    RHS       c_2932     1
    RHS       c_2933     1
    RHS       c_2934     1
    RHS       c_2935     1
    RHS       c_2936     1
    RHS       c_2937     1
    RHS       c_2938     1
    RHS       c_2939     1
    RHS       c_2940     1
    RHS       c_2941     1
    RHS       c_2942     1
    RHS       c_2943     1
    RHS       c_2944     1
BOUNDS
 LI BND       x_0        0
 UI BND       x_0        1
 LI BND       x_1        0
 UI BND       x_1        1
 LI BND       x_2        0
 UI BND       x_2        1
 LI BND       x_3        0
 UI BND       x_3        1
 LI BND       x_4        0
 UI BND       x_4        1
 LI BND       x_5        0
 UI BND       x_5        1
 LI BND       x_6        0
 UI BND       x_6        1
 LI BND       x_7        0
 UI BND       x_7        1
 LI BND       x_8        0
 UI BND       x_8        1
 LI BND       x_9        0
 UI BND       x_9        1
 LI BND       x_10       0
 UI BND       x_10       1
 LI BND       x_11       0
 UI BND       x_11       1
 LI BND       x_12       0
 UI BND       x_12       1
 LI BND       x_13       0
 UI BND       x_13       1
 LI BND       x_14       0
 UI BND       x_14       1
 LI BND       x_15       0
 UI BND       x_15       1
 LI BND       x_16       0
 UI BND       x_16       1
 LI BND       x_17       0
 UI BND       x_17       1
 LI BND       x_18       0
 UI BND       x_18       1
 LI BND       x_19       0
 UI BND       x_19       1
 LI BND       y_0        0
 UI BND       y_0        1
 LI BND       y_1        0
 UI BND       y_1        1
 LI BND       y_2        0
 UI BND       y_2        1
 LI BND       y_3        0
 UI BND       y_3        1
 LI BND       y_4        0
 UI BND       y_4        1
 LI BND       y_5        0
 UI BND       y_5        1
 LI BND       y_6        0
 UI BND       y_6        1
 LI BND       y_7        0
 UI BND       y_7        1
 LI BND       y_8        0
 UI BND       y_8        1
 LI BND       y_9        0
 UI BND       y_9        1
 LI BND       y_10       0
 UI BND       y_10       1
 LI BND       y_11       0
 UI BND       y_11       1
 LI BND       y_12       0
 UI BND       y_12       1
 LI BND       y_13       0
 UI BND       y_13       1
 LI BND       y_14       0
 UI BND       y_14       1
 LI BND       y_15       0
 UI BND       y_15       1
 LI BND       y_16       0
 UI BND       y_16       1
 LI BND       y_17       0
 UI BND       y_17       1
 LI BND       y_18       0
 UI BND       y_18       1
 LI BND       y_19       0
 UI BND       y_19       1
ENDATA
